c description: Tseitin formula on , with even charge
c generator: CNFgen (0.9.0)
c copyright: (C) 2012-2020 Massimo Lauria <massimo.lauria@uniroma1.it>
c url: https://massimolauria.net/cnfgen
c
p cnf 20 160
1 -2 0
-1 2 0
1 3 4 -5 0
1 3 -4 5 0
1 -3 4 5 0
1 -3 -4 -5 0
-1 3 4 5 0
-1 3 -4 -5 0
-1 -3 4 -5 0
-1 -3 -4 5 0
3 6 7 8 9 -10 0
3 6 7 8 -9 10 0
3 6 7 -8 9 10 0
3 6 7 -8 -9 -10 0
3 6 -7 8 9 10 0
3 6 -7 8 -9 -10 0
3 6 -7 -8 9 -10 0
3 6 -7 -8 -9 10 0
3 -6 7 8 9 10 0
3 -6 7 8 -9 -10 0
3 -6 7 -8 9 -10 0
3 -6 7 -8 -9 10 0
3 -6 -7 8 9 -10 0
3 -6 -7 8 -9 10 0
3 -6 -7 -8 9 10 0
3 -6 -7 -8 -9 -10 0
-3 6 7 8 9 10 0
-3 6 7 8 -9 -10 0
-3 6 7 -8 9 -10 0
-3 6 7 -8 -9 10 0
-3 6 -7 8 9 -10 0
-3 6 -7 8 -9 10 0
-3 6 -7 -8 9 10 0
-3 6 -7 -8 -9 -10 0
-3 -6 7 8 9 -10 0
-3 -6 7 8 -9 10 0
-3 -6 7 -8 9 10 0
-3 -6 7 -8 -9 -10 0
-3 -6 -7 8 9 10 0
-3 -6 -7 8 -9 -10 0
-3 -6 -7 -8 9 -10 0
-3 -6 -7 -8 -9 10 0
4 6 11 -12 0
4 6 -11 12 0
4 -6 11 12 0
4 -6 -11 -12 0
-4 6 11 12 0
-4 6 -11 -12 0
-4 -6 11 -12 0
-4 -6 -11 12 0
7 13 -14 0
7 -13 14 0
-7 13 14 0
-7 -13 -14 0
15 -16 0
-15 16 0
8 15 -17 0
8 -15 17 0
-8 15 17 0
-8 -15 -17 0
2 5 11 13 18 -19 0
2 5 11 13 -18 19 0
2 5 11 -13 18 19 0
2 5 11 -13 -18 -19 0
2 5 -11 13 18 19 0
2 5 -11 13 -18 -19 0
2 5 -11 -13 18 -19 0
2 5 -11 -13 -18 19 0
2 -5 11 13 18 19 0
2 -5 11 13 -18 -19 0
2 -5 11 -13 18 -19 0
2 -5 11 -13 -18 19 0
2 -5 -11 13 18 -19 0
2 -5 -11 13 -18 19 0
2 -5 -11 -13 18 19 0
2 -5 -11 -13 -18 -19 0
-2 5 11 13 18 19 0
-2 5 11 13 -18 -19 0
-2 5 11 -13 18 -19 0
-2 5 11 -13 -18 19 0
-2 5 -11 13 18 -19 0
-2 5 -11 13 -18 19 0
-2 5 -11 -13 18 19 0
-2 5 -11 -13 -18 -19 0
-2 -5 11 13 18 -19 0
-2 -5 11 13 -18 19 0
-2 -5 11 -13 18 19 0
-2 -5 11 -13 -18 -19 0
-2 -5 -11 13 18 19 0
-2 -5 -11 13 -18 -19 0
-2 -5 -11 -13 18 -19 0
-2 -5 -11 -13 -18 19 0
9 18 -20 0
9 -18 20 0
-9 18 20 0
-9 -18 -20 0
10 12 14 16 17 19 -20 0
10 12 14 16 17 -19 20 0
10 12 14 16 -17 19 20 0
10 12 14 16 -17 -19 -20 0
10 12 14 -16 17 19 20 0
10 12 14 -16 17 -19 -20 0
10 12 14 -16 -17 19 -20 0
10 12 14 -16 -17 -19 20 0
10 12 -14 16 17 19 20 0
10 12 -14 16 17 -19 -20 0
10 12 -14 16 -17 19 -20 0
10 12 -14 16 -17 -19 20 0
10 12 -14 -16 17 19 -20 0
10 12 -14 -16 17 -19 20 0
10 12 -14 -16 -17 19 20 0
10 12 -14 -16 -17 -19 -20 0
10 -12 14 16 17 19 20 0
10 -12 14 16 17 -19 -20 0
10 -12 14 16 -17 19 -20 0
10 -12 14 16 -17 -19 20 0
10 -12 14 -16 17 19 -20 0
10 -12 14 -16 17 -19 20 0
10 -12 14 -16 -17 19 20 0
10 -12 14 -16 -17 -19 -20 0
10 -12 -14 16 17 19 -20 0
10 -12 -14 16 17 -19 20 0
10 -12 -14 16 -17 19 20 0
10 -12 -14 16 -17 -19 -20 0
10 -12 -14 -16 17 19 20 0
10 -12 -14 -16 17 -19 -20 0
10 -12 -14 -16 -17 19 -20 0
10 -12 -14 -16 -17 -19 20 0
-10 12 14 16 17 19 20 0
-10 12 14 16 17 -19 -20 0
-10 12 14 16 -17 19 -20 0
-10 12 14 16 -17 -19 20 0
-10 12 14 -16 17 19 -20 0
-10 12 14 -16 17 -19 20 0
-10 12 14 -16 -17 19 20 0
-10 12 14 -16 -17 -19 -20 0
-10 12 -14 16 17 19 -20 0
-10 12 -14 16 17 -19 20 0
-10 12 -14 16 -17 19 20 0
-10 12 -14 16 -17 -19 -20 0
-10 12 -14 -16 17 19 20 0
-10 12 -14 -16 17 -19 -20 0
-10 12 -14 -16 -17 19 -20 0
-10 12 -14 -16 -17 -19 20 0
-10 -12 14 16 17 19 -20 0
-10 -12 14 16 17 -19 20 0
-10 -12 14 16 -17 19 20 0
-10 -12 14 16 -17 -19 -20 0
-10 -12 14 -16 17 19 20 0
-10 -12 14 -16 17 -19 -20 0
-10 -12 14 -16 -17 19 -20 0
-10 -12 14 -16 -17 -19 20 0
-10 -12 -14 16 17 19 20 0
-10 -12 -14 16 17 -19 -20 0
-10 -12 -14 16 -17 19 -20 0
-10 -12 -14 16 -17 -19 20 0
-10 -12 -14 -16 17 19 -20 0
-10 -12 -14 -16 17 -19 20 0
-10 -12 -14 -16 -17 19 20 0
-10 -12 -14 -16 -17 -19 -20 0